30
1 0 4
2 0 3
2 1 3
3 0 4
3 1 4
3 2 3
4 0 5
4 1 3
4 2 4
4 3 3
5 0 3
5 1 1
5 2 2
5 3 1
5 4 1
6 0 3
6 1 3
6 2 2
6 3 2
6 4 3
6 5 4
7 0 4
7 1 4
7 2 4
7 3 4
7 4 2
7 5 2
7 6 2
8 0 2
8 1 4
8 2 3
8 3 2
8 4 1
8 5 3
8 6 5
8 7 3
9 0 1
9 1 5
9 2 2
9 3 4
9 4 5
9 5 5
9 6 3
9 7 4
9 8 2
10 0 2
10 1 5
10 2 5
10 3 1
10 4 3
10 5 5
10 6 5
10 7 2
10 8 5
10 9 3
11 0 2
11 1 5
11 2 3
11 3 3
11 4 5
11 5 4
11 6 3
11 7 3
11 8 1
11 9 3
11 10 5
12 0 1
12 1 1
12 2 5
12 3 4
12 4 3
12 5 1
12 6 2
12 7 5
12 8 5
12 9 3
12 10 5
12 11 5
13 0 3
13 1 2
13 2 4
13 3 1
13 4 3
13 5 5
13 6 3
13 7 3
13 8 1
13 9 4
13 10 5
13 11 2
13 12 2
14 0 5
14 1 3
14 2 2
14 3 3
14 4 2
14 5 2
14 6 4
14 7 4
14 8 1
14 9 4
14 10 4
14 11 5
14 12 4
14 13 3
15 0 4
15 1 1
15 2 2
15 3 2
15 4 3
15 5 4
15 6 1
15 7 1
15 8 4
15 9 4
15 10 1
15 11 1
15 12 1
15 13 4
15 14 5
16 0 1
16 1 3
16 2 3
16 3 3
16 4 5
16 5 2
16 6 1
16 7 5
16 8 5
16 9 5
16 10 4
16 11 1
16 12 5
16 13 1
16 14 1
16 15 3
17 0 1
17 1 1
17 2 1
17 3 3
17 4 4
17 5 4
17 6 3
17 7 4
17 8 1
17 9 5
17 10 5
17 11 5
17 12 1
17 13 1
17 14 3
17 15 2
17 16 5
18 0 2
18 1 3
18 2 4
18 3 4
18 4 1
18 5 3
18 6 5
18 7 5
18 8 5
18 9 4
18 10 4
18 11 1
18 12 2
18 13 3
18 14 4
18 15 2
18 16 5
18 17 2
19 0 4
19 1 1
19 2 2
19 3 1
19 4 4
19 5 1
19 6 5
19 7 4
19 8 4
19 9 1
19 10 1
19 11 1
19 12 2
19 13 4
19 14 2
19 15 5
19 16 2
19 17 4
19 18 5
20 0 2
20 1 4
20 2 4
20 3 4
20 4 2
20 5 5
20 6 4
20 7 2
20 8 5
20 9 3
20 10 3
20 11 5
20 12 1
20 13 4
20 14 3
20 15 3
20 16 3
20 17 3
20 18 4
20 19 2
21 0 4
21 1 5
21 2 5
21 3 2
21 4 4
21 5 4
21 6 3
21 7 4
21 8 1
21 9 4
21 10 2
21 11 4
21 12 4
21 13 5
21 14 1
21 15 1
21 16 5
21 17 5
21 18 1
21 19 4
21 20 3
22 0 3
22 1 1
22 2 4
22 3 2
22 4 1
22 5 1
22 6 2
22 7 4
22 8 2
22 9 2
22 10 4
22 11 3
22 12 2
22 13 4
22 14 4
22 15 1
22 16 4
22 17 1
22 18 4
22 19 1
22 20 1
22 21 5
23 0 2
23 1 5
23 2 2
23 3 3
23 4 4
23 5 3
23 6 5
23 7 2
23 8 5
23 9 4
23 10 3
23 11 3
23 12 5
23 13 5
23 14 4
23 15 3
23 16 5
23 17 5
23 18 3
23 19 2
23 20 2
23 21 5
23 22 2
24 0 1
24 1 3
24 2 3
24 3 3
24 4 4
24 5 3
24 6 3
24 7 2
24 8 4
24 9 4
24 10 2
24 11 4
24 12 3
24 13 5
24 14 3
24 15 5
24 16 1
24 17 5
24 18 5
24 19 3
24 20 1
24 21 4
24 22 3
24 23 1
25 0 2
25 1 1
25 2 4
25 3 5
25 4 1
25 5 4
25 6 2
25 7 1
25 8 3
25 9 4
25 10 3
25 11 2
25 12 5
25 13 5
25 14 3
25 15 3
25 16 3
25 17 4
25 18 5
25 19 5
25 20 3
25 21 2
25 22 4
25 23 1
25 24 2
26 0 5
26 1 5
26 2 4
26 3 5
26 4 2
26 5 3
26 6 1
26 7 1
26 8 1
26 9 3
26 10 3
26 11 5
26 12 1
26 13 2
26 14 5
26 15 2
26 16 5
26 17 4
26 18 1
26 19 2
26 20 5
26 21 3
26 22 2
26 23 2
26 24 1
26 25 1
27 0 5
27 1 2
27 2 4
27 3 2
27 4 3
27 5 5
27 6 5
27 7 1
27 8 4
27 9 2
27 10 2
27 11 4
27 12 3
27 13 3
27 14 3
27 15 2
27 16 1
27 17 2
27 18 5
27 19 4
27 20 3
27 21 5
27 22 5
27 23 4
27 24 3
27 25 1
27 26 4
28 0 2
28 1 1
28 2 2
28 3 4
28 4 3
28 5 4
28 6 1
28 7 4
28 8 3
28 9 2
28 10 5
28 11 3
28 12 2
28 13 5
28 14 1
28 15 1
28 16 3
28 17 5
28 18 3
28 19 3
28 20 4
28 21 4
28 22 3
28 23 2
28 24 3
28 25 5
28 26 3
28 27 5
29 0 5
29 1 4
29 2 1
29 3 3
29 4 1
29 5 3
29 6 4
29 7 2
29 8 2
29 9 5
29 10 2
29 11 5
29 12 3
29 13 3
29 14 2
29 15 1
29 16 2
29 17 5
29 18 3
29 19 4
29 20 4
29 21 5
29 22 3
29 23 2
29 24 5
29 25 2
29 26 3
29 27 1
29 28 1
